  2   0   0   0   0   0   0   0   0   0   0   0   0   0   0   0   0   0   0   0   0   0   0   0   0   0   0   0   0   0   0   0   0   0   0   0   0   0   0   0   0   0   0   0   0   0   0   0   0   0   0   0   0   0   0   0   0   0   0   0   0   0   0   0   0   0   0   0   0   0   0   0   0   0   0   0   0   0   0   0   0   0   0   0   0   0   0   0   0   0   0   0   0   0   0   0   0   0   0   0   0   0   0   0   0   0   0   0   0   0   0   0   0   0   0   0   0   0   0   0   0   0   0   0   0   0   0   0   0   0   0   0   0   0   0   0   0   0   0   0   0   0   0   0   0   0   0   0   0   0   0   0   0   0   0   0   0   0   0   0   0   0   0   0   0   0   0   0   0   0   0   0   0   0   0   0   0   0   0   0   0   0   0   0   0   0   0   0   0   0   0   0   0   0   0   0   0   0   0   0   0   0   0   0   0   0   0   0   0   0   0   0   0   0   0   0   0   0   0   0   0   0   0   0   0   0   0   0   0   0   0   0   0   0   0   0   0   0   0   0   0   0   0   0   0   0   0   0   0   0   0   0   0   0   0   0   0   0   0   0   0   0   0   0   0   0   0   0   0   0   0   0   0   0   0   0   0   0   0   0   0   0   0   0   0   0   0   0   0   0   0   0   0   0   0   0   0   0   0   0   0   0   0   0   0   0   0   0   0   0   0   0   0   0   0   0   0   0   0   0   0   0   0   0   0   0   0   0   0   0   0   0   0   0   0   0   0   0   0   0   0   0   0   0   0   0   0   0   0   0   0   0   0   0   0   0   0   0   0   0   0   0   0   0   0   0   0   0   0   0   0   0   0   0   0   0   0   0   0   0   0   0   0   0   0   0   0   0   0   0   0   0   0   0   0   0   0   0   0   0   0   0   0   0   0   0   0   0   0   0   0   0   0   0   0   0   0   0   0   0   0   0   0   0   0   0   0   0   0   0   0   0   0   0   0   0   0   0   0   0   0   0   0   0   0   0   0   0   0   0   0   0   0   0   0   0   0   0   0   0   0   0   0   0   0   0   0   0   0   0   0   0   0   0   0   0   0   0   0   0   0   0   0   0   0   0   0   0   0   0   0   0   0   0   0   0   0   0   0   0   0   0   0   0   0   0   0   0   0   0   0   0   0   0   0   0   0   0   0   0   0   0   0   0   0   0   0   0   0   0   0   0   0   0   0   0   0   0   0   0   0   0   0   0   0   0   0   0   0   0   0   0   0   0   0   0   0   0   0   0   0   0   0   0   0   0   0   0   0   0   0   0   0   0   0   0   0   0   0   0   0   0   0   0   0   0   0   0   0   0   0   0   0   0   0   0   0   0   0   0   0   0   0   0   0   0   0   0   0   0   0   0   0   0   0   0   0   0   0   0   0   0   0   0   0   0   0   0   0   0   0   0   0   0   0   0   0   0   0   0   0   0   0   0   0   0   0   0   0   0   0   0   0   0   0   0   0   0   0   0   0   0   0   0   0   0   0   0   0   0   0   0   0   0   0   0   0   0   0   0   0   0   0   0   0   0   0   0   0   0   0   0   0   0   0   0   0   0   0   0   0   0   0   0   0   0   0   0   0   0   0   0   0   0   0   0   0   0   0   0   0   0   0   0   0   0   0   0   0   0   0   0   0   0   0   0   0   0   0   0   0   0   0   0   0   0   0   0   0   0   0   0   0   0   0   0   0   0   0   0   0   0   0   0   0   0   0   0   0   0   0   0   0   0   0   0   0   0   0   0   0   0   0   0   0   0   0   0   0   0   0   0   0   0   0   0   0   0   0   0   0   0   0   0   0   0   0   0   0   0   0   0   0   0   0   0   0   0   0   0   0   0   0   0   0   0   0   0   0   0   0   0   0   0   0   0   0   0   0   0   0   0   0   0   0   0   0   0   0   0   0   0   0   0   0   0   0   0   0   0   0   0   0   0   0   0   0   0   0   0   0   0   0   0   0   0   0   0   0   0   0   0   0   0   0   0   0   0   0   0   0   0   0   0   0   0   0   0   0   0   0   0   0   0   0   0   0   0   0   0   0   0   0   0   0   0   0   0   0   0   0   0   0   0   0   0   0   0   0   0   0   0   0   0   0   0   0   0   0   0   0   0   0   0   0   0   0   0   0   0   0   0   0   0   0   0   0   0   0   0   0   0   0   0   0   0   0   0   0   0   0   0   0   0   0   0   0   0   0   0   0   0   0   0   0   0   0   0   0   0   0   0   0   0   0   0   0   0   0   0 
REMAINING SPACE:      94
ACCUMULATED PRIORITY: 198
EXECUTION TIME:       0.000126700
QTY PRI VAL
[2]  99 203
[0] 100 208
[0] 100 209
[0]  96 201
[0]  94 200
[0]  95 203
[0]  95 207
[0]  96 211
[0]  99 222
[0]  97 218
[0]  89 203
[0]  89 204
[0]  93 216
[0]  85 203
[0]  97 233
[0]  93 225
[0]  95 233
[0]  99 244
[0]  98 242
[0]  90 223
[0]  98 244
[0]  91 227
[0]  87 220
[0]  96 244
[0]  93 240
[0]  78 203
[0]  81 211
[0]  78 204
[0]  91 239
[0]  93 245
[0]  98 259
[0]  93 246
[0]  99 262
[0]  77 204
[0]  97 257
[0]  92 244
[0] 100 267
[0]  95 254
[0]  82 221
[0]  82 222
[0]  80 217
[0]  82 224
[0]  82 225
[0]  79 217
[0]  94 259
[0] 100 276
[0]  94 261
[0]  99 280
[0]  88 249
[0]  92 261
[0]  75 214
[0]  94 272
[0]  95 276
[0]  78 227
[0]  83 242
[0]  93 272
[0]  95 278
[0]  89 261
[0]  68 200
[0]  86 253
[0]  88 259
[0]  89 264
[0]  91 272
[0]  90 270
[0]  96 288
[0]  97 292
[0]  95 288
[0]  99 302
[0]  69 211
[0]  90 278
[0]  87 269
[0]  90 279
[0]  90 279
[0]  68 213
[0]  97 304
[0]  64 201
[0]  65 205
[0]  71 224
[0]  98 310
[0]  88 279
[0]  97 308
[0]  74 235
[0]  84 267
[0]  71 226
[0]  92 293
[0]  78 249
[0]  97 310
[0]  85 272
[0]  72 231
[0]  90 289
[0]  71 228
[0]  96 309
[0]  89 288
[0]  83 269
[0]  86 279
[0]  73 238
[0]  96 313
[0]  91 297
[0]  62 203
[0]  69 227
[0]  67 221
[0]  83 274
[0]  63 208
[0]  96 317
[0]  85 281
[0]  87 288
[0]  98 325
[0]  83 276
[0]  98 327
[0]  68 227
[0]  93 312
[0]  99 333
[0]  64 216
[0]  98 332
[0]  85 288
[0]  96 326
[0]  72 246
[0]  88 302
[0]  95 327
[0] 100 347
[0]  92 320
[0]  75 261
[0]  85 296
[0]  94 328
[0] 100 349
[0]  63 220
[0]  66 231
[0]  85 298
[0]  63 221
[0]  82 291
[0]  63 224
[0]  64 228
[0]  98 350
[0]  83 297
[0]  57 204
[0]  74 265
[0]  97 348
[0]  66 237
[0]  89 320
[0]  65 234
[0]  63 227
[0]  73 264
[0]  76 275
[0]  88 319
[0]  72 261
[0]  97 352
[0]  68 248
[0]  78 286
[0]  90 330
[0]  81 297
[0]  83 305
[0]  59 218
[0]  99 367
[0]  68 253
[0]  79 294
[0]  69 257
[0]  80 299
[0]  81 303
[0]  54 202
[0]  81 303
[0]  59 222
[0]  95 358
[0]  99 374
[0]  66 250
[0]  57 216
[0]  90 342
[0]  89 340
[0]  75 288
[0]  98 378
[0]  91 351
[0]  78 301
[0]  84 325
[0]  71 275
[0]  90 350
[0]  97 378
[0]  98 383
[0]  77 301
[0]  95 372
[0]  75 295
[0]  93 367
[0]  59 233
[0]  80 316
[0]  89 352
[0]  97 384
[0]  73 289
[0]  62 246
[0]  64 254
[0]  64 255
[0]  76 304
[0]  95 380
[0]  85 340
[0]  72 290
[0]  88 355
[0]  72 291
[0]  89 362
[0]  71 289
[0]  93 380
[0]  66 270
[0]  96 393
[0]  50 206
[0] 100 413
[0]  91 377
[0]  75 311
[0]  67 278
[0]  77 320
[0]  70 291
[0]  82 341
[0] 100 417
[0]  81 338
[0]  69 289
[0]  53 222
[0]  71 298
[0]  86 361
[0]  60 252
[0]  98 412
[0]  87 367
[0]  76 322
[0]  69 293
[0]  92 391
[0]  56 238
[0]  91 387
[0]  58 247
[0]  57 243
[0]  83 354
[0]  88 376
[0]  63 270
[0]  97 416
[0]  61 262
[0]  80 344
[0]  96 414
[0]  70 302
[0]  66 286
[0]  68 295
[0]  76 330
[0]  60 261
[0]  78 340
[0]  89 388
[0]  86 375
[0]  68 297
[0]  86 376
[0]  75 328
[0]  64 280
[0]  98 429
[0]  87 381
[0]  94 412
[0]  66 290
[0]  99 435
[0]  91 400
[0]  65 286
[0]  47 207
[0]  94 414
[0]  46 203
[0]  93 412
[0]  98 436
[0]  92 410
[0]  59 263
[0]  45 201
[0]  75 336
[0]  65 292
[0]  75 337
[0]  95 428
[0]  69 311
[0]  72 326
[0]  45 204
[0]  66 300
[0]  53 241
[0]  85 387
[0]  62 283
[0]  90 411
[0]  98 448
[0]  59 270
[0]  78 357
[0]  90 412
[0]  77 353
[0]  82 376
[0]  80 367
[0]  54 248
[0]  57 263
[0]  60 277
[0]  73 338
[0]  68 316
[0]  75 349
[0]  94 439
[0]  77 361
[0]  90 422
[0]  91 427
[0]  46 216
[0]  89 418
[0]  48 226
[0] 100 471
[0]  66 311
[0]  84 396
[0]  46 217
[0]  46 217
[0]  98 463
[0]  73 345
[0]  88 416
[0]  75 355
[0]  53 251
[0]  88 417
[0]  56 266
[0]  94 447
[0]  66 314
[0]  96 458
[0]  89 425
[0]  99 473
[0]  83 397
[0]  67 321
[0]  92 441
[0]  55 264
[0] 100 480
[0]  88 423
[0]  78 375
[0]  78 375
[0] 100 481
[0]  48 231
[0]  64 308
[0]  60 289
[0]  75 362
[0]  59 285
[0]  82 397
[0]  95 460
[0]  85 412
[0]  85 412
[0]  87 422
[0]  86 418
[0]  82 399
[0]  41 200
[0]  64 313
[0]  76 372
[0]  69 339
[0]  70 344
[0]  84 413
[0]  44 217
[0]  46 227
[0]  89 440
[0]  90 445
[0]  74 366
[0]  41 203
[0]  63 312
[0]  42 208
[0]  87 431
[0]  69 342
[0]  47 233
[0]  49 243
[0]  56 278
[0]  81 403
[0]  82 408
[0]  86 428
[0]  55 274
[0]  61 304
[0]  77 384
[0]  93 464
[0]  93 464
[0]  95 474
[0]  64 320
[0]  60 300
[0]  91 455
[0]  82 411
[0]  91 457
[0]  68 343
[0]  91 461
[0]  86 436
[0]  96 487
[0]  96 487
[0]  95 482
[0]  49 249
[0]  60 306
[0]  87 444
[0]  63 322
[0]  88 451
[0]  48 246
[0]  59 303
[0]  77 397
[0]  44 227
[0]  93 480
[0]  68 351
[0]  86 444
[0]  77 398
[0]  90 466
[0]  45 233
[0]  70 363
[0]  78 406
[0]  68 354
[0]  58 302
[0]  89 465
[0]  79 413
[0]  57 298
[0]  57 298
[0]  89 466
[0]  80 419
[0]  78 409
[0]  77 405
[0]  79 417
[0]  66 349
[0]  86 455
[0]  51 270
[0]  87 461
[0]  69 366
[0]  93 494
[0]  80 425
[0]  79 420
[0]  40 213
[0]  39 208
[0]  73 390
[0]  58 310
[0]  67 359
[0]  74 397
[0]  39 210
[0]  66 357
[0]  63 341
[0]  61 331
[0]  72 391
[0]  91 495
[0]  51 278
[0]  77 420
[0]  59 323
[0]  80 438
[0]  63 345
[0]  44 241
[0]  68 373
[0]  76 417
[0]  63 346
[0]  80 440
[0]  38 209
[0]  79 435
[0]  71 391
[0]  64 353
[0]  73 403
[0]  44 244
[0]  86 477
[0]  52 289
[0]  75 417
[0]  37 206
[0]  80 446
[0]  68 380
[0]  62 347
[0]  78 437
[0]  88 495
[0]  66 372
[0]  57 322
[0]  73 413
[0]  45 256
[0]  45 257
[0]  42 240
[0]  43 246
[0]  74 424
[0]  51 293
[0]  60 345
[0]  52 299
[0]  77 444
[0]  73 421
[0]  65 375
[0]  79 456
[0]  63 365
[0]  65 377
[0]  71 412
[0]  77 447
[0]  81 472
[0]  70 408
[0]  47 274
[0]  75 440
[0]  39 229
[0]  40 235
[0]  54 318
[0]  66 389
[0]  78 460
[0]  59 348
[0]  56 331
[0]  48 284
[0]  60 355
[0]  49 290
[0]  61 362
[0]  35 208
[0]  66 394
[0]  50 299
[0]  61 365
[0]  60 360
[0]  77 462
[0]  59 354
[0]  81 487
[0]  60 361
[0]  60 364
[0]  73 443
[0]  42 255
[0]  68 413
[0]  42 256
[0]  52 317
[0]  49 300
[0]  67 411
[0]  73 449
[0]  52 320
[0]  64 394
[0]  73 450
[0]  67 414
[0]  53 328
[0]  67 416
[0]  40 249
[0]  43 268
[0]  59 369
[0]  52 326
[0]  44 276
[0]  77 484
[0]  72 453
[0]  67 422
[0]  40 252
[0]  62 391
[0]  48 303
[0]  68 430
[0]  63 399
[0]  42 267
[0]  72 458
[0]  76 486
[0]  76 486
[0]  68 435
[0]  35 224
[0]  62 397
[0]  64 410
[0]  55 353
[0]  76 488
[0]  67 432
[0]  67 433
[0]  59 382
[0]  68 442
[0]  38 247
[0]  52 338
[0]  63 410
[0]  45 293
[0]  75 489
[0]  65 424
[0]  68 444
[0]  76 497
[0]  46 301
[0]  56 368
[0]  64 421
[0]  58 384
[0]  75 497
[0]  46 305
[0]  61 406
[0]  44 293
[0]  71 473
[0]  42 280
[0]  55 367
[0]  62 414
[0]  74 497
[0]  57 383
[0]  54 363
[0]  47 316
[0]  44 296
[0]  70 471
[0]  50 337
[0]  44 297
[0]  69 466
[0]  50 338
[0]  42 284
[0]  42 284
[0]  45 305
[0]  36 244
[0]  59 400
[0]  46 312
[0]  47 320
[0]  60 409
[0]  61 416
[0]  40 273
[0]  35 239
[0]  57 390
[0]  32 219
[0]  62 425
[0]  52 357
[0]  53 364
[0]  40 277
[0]  44 305
[0]  66 459
[0]  46 320
[0]  30 209
[0]  56 392
[0]  70 491
[0]  63 442
[0]  32 225
[0]  63 443
[0]  65 459
[0]  62 438
[0]  42 297
[0]  41 290
[0]  46 326
[0]  65 461
[0]  43 305
[0]  63 450
[0]  46 329
[0]  52 373
[0]  53 381
[0]  62 447
[0]  45 325
[0]  50 362
[0]  59 428
[0]  50 363
[0]  56 407
[0]  35 255
[0]  52 380
[0]  42 307
[0]  53 389
[0]  63 463
[0]  37 272
[0]  63 464
[0]  42 310
[0]  63 467
[0]  48 357
[0]  57 424
[0]  57 425
[0]  35 261
[0]  32 239
[0]  46 344
[0]  60 449
[0]  39 292
[0]  50 375
[0]  57 429
[0]  51 385
[0]  37 280
[0]  63 477
[0]  47 356
[0]  27 205
[0]  30 228
[0]  29 221
[0]  46 351
[0]  54 413
[0]  64 490
[0]  57 437
[0]  62 478
[0]  56 432
[0]  46 355
[0]  32 248
[0]  54 419
[0]  42 326
[0]  26 202
[0]  49 382
[0]  45 351
[0]  33 258
[0]  55 433
[0]  60 474
[0]  45 356
[0]  47 372
[0]  50 396
[0]  51 404
[0]  30 238
[0]  56 446
[0]  62 495
[0]  54 432
[0]  55 441
[0]  50 402
[0]  55 444
[0]  53 428
[0]  32 261
[0]  45 368
[0]  43 356
[0]  41 341
[0]  52 434
[0]  47 393
[0]  40 335
[0]  45 377
[0]  28 236
[0]  49 414
[0]  38 322
[0]  46 390
[0]  29 246
[0]  39 331
[0]  54 460
[0]  57 488
[0]  37 318
[0]  46 399
[0]  34 295
[0]  57 495
[0]  55 478
[0]  42 366
[0]  47 412
[0]  39 345
[0]  29 257
[0]  31 275
[0]  45 400
[0]  45 401
[0]  46 415
[0]  32 290
[0]  47 426
[0]  54 491
[0]  47 428
[0]  42 385
[0]  39 358
[0]  43 396
[0]  47 433
[0]  32 295
[0]  54 498
[0]  31 286
[0]  31 286
[0]  42 388
[0]  43 399
[0]  50 465
[0]  42 391
[0]  52 485
[0]  26 243
[0]  45 421
[0]  53 497
[0]  24 227
[0]  24 227
[0]  45 427
[0]  42 399
[0]  39 371
[0]  31 295
[0]  37 354
[0]  48 463
[0]  45 436
[0]  26 253
[0]  44 429
[0]  31 303
[0]  36 352
[0]  43 422
[0]  44 433
[0]  31 306
[0]  40 395
[0]  37 367
[0]  38 377
[0]  26 258
[0]  30 298
[0]  22 219
[0]  39 390
[0]  38 380
[0]  36 360
[0]  37 370
[0]  45 451
[0]  38 382
[0]  40 404
[0]  40 404
[0]  26 263
[0]  43 435
[0]  45 456
[0]  27 274
[0]  38 386
[0]  29 296
[0]  43 440
[0]  33 339
[0]  44 452
[0]  33 341
[0]  40 414
[0]  41 427
[0]  48 500
[0]  23 240
[0]  25 261
[0]  45 473
[0]  43 454
[0]  38 402
[0]  24 255
[0]  39 416
[0]  33 353
[0]  43 461
[0]  31 334
[0]  29 314
[0]  43 466
[0]  26 282
[0]  42 456
[0]  23 251
[0]  45 495
[0]  45 496
[0]  35 387
[0]  42 466
[0]  41 455
[0]  29 322
[0]  38 422
[0]  30 335
[0]  28 313
[0]  43 481
[0]  38 428
[0]  30 338
[0]  42 475
[0]  25 283
[0]  34 385
[0]  43 487
[0]  27 307
[0]  42 478
[0]  36 411
[0]  28 321
[0]  37 425
[0]  23 267
[0]  32 372
[0]  18 210
[0]  31 363
[0]  28 328
[0]  31 364
[0]  29 341
[0]  21 247
[0]  36 432
[0]  37 447
[0]  36 436
[0]  27 328
[0]  40 486
[0]  33 401
[0]  18 219
[0]  33 403
[0]  40 489
[0]  31 380
[0]  28 344
[0]  34 418
[0]  35 431
[0]  22 273
[0]  36 448
[0]  37 461
[0]  40 499
[0]  39 487
[0]  18 225
[0]  31 388
[0]  33 415
[0]  39 493
[0]  31 392
[0]  22 279
[0]  37 470
[0]  23 293
[0]  20 255
[0]  37 476
[0]  21 271
[0]  28 362
[0]  37 486
[0]  23 303
[0]  29 383
[0]  22 293
[0]  22 294
[0]  16 216
[0]  30 406
[0]  31 421
[0]  34 462
[0]  20 272
[0]  30 410
[0]  29 398
[0]  20 277
[0]  23 319
[0]  15 209
[0]  20 279
[0]  23 322
[0]  20 280
[0]  22 308
[0]  35 493
[0]  19 268
[0]  17 240
[0]  34 484
[0]  34 485
[0]  21 300
[0]  31 443
[0]  20 286
[0]  18 258
[0]  34 490
[0]  23 332
[0]  33 478
[0]  18 261
[0]  21 305
[0]  26 379
[0]  27 394
[0]  31 453
[0]  26 381
[0]  16 235
[0]  17 251
[0]  31 460
[0]  25 371
[0]  32 480
[0]  26 392
[0]  17 258
[0]  25 381
[0]  15 233
[0]  15 233
[0]  21 327
[0]  27 423
[0]  25 392
[0]  16 251
[0]  14 220
[0]  14 220
[0]  20 315
[0]  23 363
[0]  20 316
[0]  23 367
[0]  28 448
[0]  31 497
[0]  26 421
[0]  23 373
[0]  29 471
[0]  25 407
[0]  18 294
[0]  23 379
[0]  13 215
[0]  18 298
[0]  19 322
[0]  15 256
[0]  23 394
[0]  18 313
[0]  20 348
[0]  15 261
[0]  16 279
[0]  22 397
[0]  19 348
[0]  19 349
[0]  15 278
[0]  13 242
[0]  18 340
[0]  21 398
[0]  15 287
[0]  22 421
[0]  18 351
[0]  20 390
[0]  17 332
[0]  23 456
[0]  22 445
[0]  13 264
[0]  22 449
[0]  10 206
[0]  14 289
[0]  13 269
[0]  20 415
[0]  22 463
[0]  21 442
[0]  23 488
[0]  11 234
[0]  20 428
[0]  12 258
[0]  21 454
[0]  22 476
[0]  22 477
[0]  18 391
[0]  19 413
[0]  16 349
[0]  22 480
[0]  17 375
[0]  20 442
[0]  16 354
[0]  11 244
[0]  20 446
[0]  10 224
[0]  13 293
[0]  21 476
[0]  13 297
[0]  19 438
[0]  20 465
[0]  12 281
[0]  12 282
[0]  17 405
[0]  18 436
[0]  17 413
[0]  17 423
[0]  19 473
[0]  10 249
[0]  15 377
[0]  16 411
[0]  19 490
[0]  12 310
[0]  10 259
[0]  12 316
[0]  18 475
[0]  15 404
[0]  18 486
[0]  14 381
[0]  13 354
[0]  17 464
[0]  14 383
[0]  10 274
[0]  16 442
[0]  17 483
[0]  17 483
[0]  12 341
[0]  12 344
[0]  11 316
[0]  14 405
[0]  14 409
[0]  12 351
[0]  13 388
[0]  16 479
[0]  14 420
[0]  12 369
[0]  16 495
[0]  11 341
[0]  13 404
[0]  15 469
[0]  15 472
[0]  14 441
[0]  12 380
[0]  12 382
[0]  12 384
[0]  15 482
[0]  14 461
[0]  12 397
[0]  10 333
[0]  11 370
[0]  10 341
[0]  14 478
[0]  11 377
[0]  11 383
[0]  12 436
[0]  11 401
[0]  11 402
[0]  11 402
[0]  12 457
[0]  13 500
[0]  11 432
[0]  11 433
[0]  12 485
[0]  12 495
[0]  11 477
[0]  11 485
